NAME : hola//resumen/Partial_Problem_1_5.txt
COMMENT : 
TYPE : TSP
DIMENSION : 10
EDGE_WEIGHT_TYPE : GEOM
NODE_COORD_SECTION
1	30	40
2	52	64
3	49	49
4	52	41
5	56	37
6	52	33
7	48	28
8	40	30
9	45	35
10	42	41
EOF
